nNurses = 92;
nHours = 29;
minHours = 9;
maxHours = 20;
maxConsec = 18;
maxPresence = 17;
demand = [11, 10, 6, 6, 9, 6, 10, 6, 11, 8, 6, 11, 16, 12, 15, 13, 11, 8, 11, 10, 10, 7, 12, 13, 18, 17, 19, 19, 19];
